
-4.75
-4.6
-4.5
-4.35
-4.25
-4.25
-4.1
-4.0
-3.95
-3.8
-3.45
-3.2
-2.9
-2.5
-2.05
-1.65
-1.35
-1.05
-0.9
-0.9
-0.9
-0.9
-0.9
-0.9
-0.8
-0.8
-0.8
-0.8
-0.75
-0.75
-0.75
-0.75
-0.75
-0.75
-0.75
-0.75
-0.75
-0.75